# Solution for model r5_t36_m7_5
# Finished Task: 33 / 36
# Makespan: 931.0, Total Distance: 1818.0, Total Time: 3.1444
# R O S F
0 0 12 0.0 0.0
1 1 23 0.0 0.0
2 2 14 0.0 0.0
3 3 17 0.0 0.0
4 4 11 0.0 0.0
5 3 33 722.0 752.0
6 3 31 390.0 425.0
7 -1 -1 -1.0 -1.0
8 -1 -1 -1.0 -1.0
9 2 38 495.0 521.0
10 -1 -1 -1.0 -1.0
11 4 34 374.0 407.0
12 0 19 217.0 256.0
13 1 40 489.0 528.0
14 2 16 256.0 284.0
15 3 5 693.0 722.0
16 2 22 369.0 396.0
17 3 6 289.0 325.0
18 4 -1 797.0 825.0
19 0 29 522.0 553.0
20 1 26 675.0 702.0
21 4 18 756.0 785.0
22 2 9 430.0 466.0
23 1 13 430.0 460.0
24 0 -1 792.0 818.0
25 1 -1 910.0 931.0
26 1 36 780.0 811.0
27 4 21 701.0 721.0
28 3 -1 858.0 881.0
29 0 37 673.0 705.0
30 3 15 669.0 693.0
31 3 30 490.0 529.0
32 4 27 563.0 590.0
33 3 28 768.0 800.0
34 4 32 470.0 500.0
35 2 -1 799.0 829.0
36 1 25 849.0 869.0
37 0 24 732.0 760.0
38 2 39 718.0 745.0
39 2 35 757.0 785.0
40 1 20 629.0 665.0
